sing20200120.12
TTAA 70121 48698
99009 29250 04510 00100 27850 02510 92787 21607 02522
85518 18030 03017 70161 10221 10005 50589 04709 05005
40762 13756 14509 30974 28728 14508 25102 39335 35503
20251 51932 28009 15431 65957 32012 10666 83540 21013
88999
77999=
TTDD 7012/ 48698
11856 86549 22722 78760 33630 78361
21212 11980 18013 22945 18510 33779 15001 44710 30010
55696 30010 66602 20511=
